p cnf 172
-5 -48
-6 -51
-7 -54
-8 -57
-9 -59
-10 -61
-11 -63
-12 -65
-13 66
-14 -7
-14 8
7 -8 14
-15 7
-15 -8
-7 8 15
-16 -14
-16 -15
14 15 16
-17 -1
-17 -2
1 2 17
-18 -3
-18 -4
3 4 18
-19 17
-19 18
-17 -18 19
-20 -9
-20 -10
9 10 20
-21 -11
-21 -12
11 12 21
-22 20
-22 21
-20 -21 22
-23 9
-23 -16
-9 16 23
-24 -9
-24 16
9 -16 24
-25 -23
-25 -24
23 24 25
-26 5
-26 10
-5 -10 26
-27 -5
-27 -10
5 10 27
-28 -26
-28 -27
26 27 28
-29 6
-29 11
-6 -11 29
-30 -6
-30 -11
6 11 30
-31 -29
-31 -30
29 30 31
-32 7
-32 12
-7 -12 32
-33 -7
-33 -12
7 12 33
-34 -32
-34 -33
32 33 34
-35 -25
-35 -28
25 28 35
-36 -31
-36 -34
31 34 36
-37 35
-37 36
-35 -36 37
-38 -22
-38 37
22 -37 38
-39 13
-39 38
-13 -38 39
-40 19
-40 39
-19 -39 40
-41 -5
-41 16
5 -16 41
-42 -6
-42 -7
6 7 42
-43 41
-43 42
-41 -42 43
-44 -22
-44 43
22 -43 44
-45 19
-45 -38
-19 38 45
-46 1
-46 -19
-1 19 46
-47 -16
-47 19
16 -19 47
-48 -46
-48 -47
46 47 48
-49 2
-49 -19
-2 19 49
-50 5
-50 19
-5 -19 50
-51 -49
-51 -50
49 50 51
-52 3
-52 -19
-3 19 52
-53 6
-53 19
-6 -19 53
-54 -52
-54 -53
52 53 54
-55 4
-55 -19
-4 19 55
-56 7
-56 19
-7 -19 56
-57 -55
-57 -56
55 56 57
-58 9
-58 19
-9 -19 58
-59 -46
-59 -58
46 58 59
-60 10
-60 19
-10 -19 60
-61 -49
-61 -60
49 60 61
-62 11
-62 19
-11 -19 62
-63 -52
-63 -62
52 62 63
-64 12
-64 19
-12 -19 64
-65 -55
-65 -64
55 64 65
-66 -13
-66 45
13 -45 66
-67 -40
-67 -44
40 44 67
-67
